p edge 40 1600 3 
1 1 0.093870 
2 1 0.000000 
3 1 0.000428 
4 1 0.000645 
5 1 0.000008 
6 1 0.038651 
7 1 0.012570 
8 1 0.000007 
9 1 0.008469 
10 1 0.060292 
11 1 0.000008 
12 1 0.000444 
13 1 0.080192 
14 1 0.007330 
15 1 0.000019 
16 1 0.003199 
17 1 0.000001 
18 1 0.000241 
19 1 0.000000 
20 1 0.083489 
21 1 0.000188 
22 1 0.050808 
23 1 0.005266 
24 1 0.000062 
25 1 0.042696 
26 1 0.001570 
27 1 0.000009 
28 1 0.000318 
29 1 0.000000 
30 1 0.021065 
31 1 0.082202 
32 1 0.003301 
33 1 0.000029 
34 1 0.000063 
35 1 0.000130 
36 1 0.010997 
37 1 0.000065 
38 1 0.090161 
39 1 0.067681 
40 1 0.000001 
1 2 0.000000 
2 2 0.148979 
3 2 0.000120 
4 2 0.000822 
5 2 0.014147 
6 2 0.000040 
7 2 0.000005 
8 2 0.053798 
9 2 0.000003 
10 2 0.000026 
11 2 0.123981 
12 2 0.003331 
13 2 0.000000 
14 2 0.000234 
15 2 0.003062 
16 2 0.000097 
17 2 0.113776 
18 2 0.008442 
19 2 0.132833 
20 2 0.000000 
21 2 0.042165 
22 2 0.000002 
23 2 0.000042 
24 2 0.003891 
25 2 0.000002 
26 2 0.000016 
27 2 0.049081 
28 2 0.000780 
29 2 0.139467 
30 2 0.000024 
31 2 0.000000 
32 2 0.000251 
33 2 0.011128 
34 2 0.013039 
35 2 0.002419 
36 2 0.000013 
37 2 0.046578 
38 2 0.000000 
39 2 0.000003 
40 2 0.065876 
1 3 0.000382 
2 3 0.000124 
3 3 0.105611 
4 3 0.000000 
5 3 0.014545 
6 3 0.045525 
7 3 0.000009 
8 3 0.000008 
9 3 0.085962 
10 3 0.001504 
11 3 0.000721 
12 3 0.065375 
13 3 0.008316 
14 3 0.000019 
15 3 0.000000 
16 3 0.093259 
17 3 0.002203 
18 3 0.000006 
19 3 0.000018 
20 3 0.002984 
21 3 0.019875 
22 3 0.000126 
23 3 0.000001 
24 3 0.039582 
25 3 0.043131 
26 3 0.100646 
27 3 0.009519 
28 3 0.089392 
29 3 0.000148 
30 3 0.000061 
31 3 0.000467 
32 3 0.000001 
33 3 0.000001 
34 3 0.026353 
35 3 0.000000 
36 3 0.081595 
37 3 0.000045 
38 3 0.001707 
39 3 0.016605 
40 3 0.005672 
1 4 0.000948 
2 4 0.000636 
3 4 0.000000 
4 4 0.098455 
5 4 0.000015 
6 4 0.000305 
7 4 0.034897 
8 4 0.055365 
9 4 0.000004 
10 4 0.011674 
11 4 0.005465 
12 4 0.000013 
13 4 0.000099 
14 4 0.054833 
15 4 0.097678 
16 4 0.000005 
17 4 0.000343 
18 4 0.090336 
19 4 0.007887 
20 4 0.001112 
21 4 0.000582 
22 4 0.016681 
23 4 0.048150 
24 4 0.000002 
25 4 0.000049 
26 4 0.000001 
27 4 0.000137 
28 4 0.000000 
29 4 0.002746 
30 4 0.032958 
31 4 0.003987 
32 4 0.069199 
33 4 0.088400 
34 4 0.000030 
35 4 0.099050 
36 4 0.000011 
37 4 0.059974 
38 4 0.000345 
39 4 0.000382 
40 4 0.000099 
1 5 0.000005 
2 5 0.008926 
3 5 0.008947 
4 5 0.000014 
5 5 0.137355 
6 5 0.001797 
7 5 0.000000 
8 5 0.001970 
9 5 0.001875 
10 5 0.000055 
11 5 0.014642 
12 5 0.061198 
13 5 0.000157 
14 5 0.000008 
15 5 0.000077 
16 5 0.006054 
17 5 0.041771 
18 5 0.000325 
19 5 0.004976 
20 5 0.000065 
21 5 0.085373 
22 5 0.000002 
23 5 0.000000 
24 5 0.111407 
25 5 0.000967 
26 5 0.003164 
27 5 0.101016 
28 5 0.033358 
29 5 0.008499 
30 5 0.000002 
31 5 0.000008 
32 5 0.000004 
33 5 0.000361 
34 5 0.115569 
35 5 0.000064 
36 5 0.002413 
37 5 0.002215 
38 5 0.000030 
39 5 0.000414 
40 5 0.092428 
1 6 0.050270 
2 6 0.000047 
3 6 0.055138 
4 6 0.000279 
5 6 0.003452 
6 6 0.067518 
7 6 0.005168 
8 6 0.000034 
9 6 0.065355 
10 6 0.040061 
11 6 0.000252 
12 6 0.035918 
13 6 0.059784 
14 6 0.003547 
15 6 0.000032 
16 6 0.063091 
17 6 0.000438 
18 6 0.000158 
19 6 0.000028 
20 6 0.055852 
21 6 0.009520 
22 6 0.026844 
23 6 0.001814 
24 6 0.015252 
25 6 0.066841 
26 6 0.061269 
27 6 0.002493 
28 6 0.045857 
29 6 0.000059 
30 6 0.011078 
31 6 0.046706 
32 6 0.001260 
33 6 0.000041 
34 6 0.010494 
35 6 0.000084 
36 6 0.066780 
37 6 0.000094 
38 6 0.055047 
39 6 0.062934 
40 6 0.000971 
1 7 0.011166 
2 7 0.000002 
3 7 0.000010 
4 7 0.021672 
5 7 0.000000 
6 7 0.003578 
7 7 0.133710 
8 7 0.000536 
9 7 0.000375 
10 7 0.046834 
11 7 0.000073 
12 7 0.000025 
13 7 0.004685 
14 7 0.101432 
15 7 0.001343 
16 7 0.000172 
17 7 0.000001 
18 7 0.006537 
19 7 0.000043 
20 7 0.010699 
21 7 0.000054 
22 7 0.075330 
23 7 0.128298 
24 7 0.000001 
25 7 0.002426 
26 7 0.000059 
27 7 0.000002 
28 7 0.000008 
29 7 0.000016 
30 7 0.111555 
31 7 0.024814 
32 7 0.086846 
33 7 0.001502 
34 7 0.000003 
35 7 0.005044 
36 7 0.000589 
37 7 0.001628 
38 7 0.007107 
39 7 0.005828 
40 7 0.000000 
1 8 0.000016 
2 8 0.065639 
3 8 0.000009 
4 8 0.071828 
5 8 0.003834 
6 8 0.000045 
7 8 0.001253 
8 8 0.093756 
9 8 0.000001 
10 8 0.000945 
11 8 0.068172 
12 8 0.000845 
13 8 0.000003 
14 8 0.017851 
15 8 0.092520 
16 8 0.000015 
17 8 0.047432 
18 8 0.088945 
19 8 0.077707 
20 8 0.000030 
21 8 0.018826 
22 8 0.000434 
23 8 0.007008 
24 8 0.000520 
25 8 0.000002 
26 8 0.000002 
27 8 0.019057 
28 8 0.000075 
29 8 0.070079 
30 8 0.002815 
31 8 0.000084 
32 8 0.029278 
33 8 0.094841 
34 8 0.004086 
35 8 0.087663 
36 8 0.000003 
37 8 0.092003 
38 8 0.000007 
39 8 0.000016 
40 8 0.024130 
1 9 0.008716 
2 9 0.000005 
3 9 0.085599 
4 9 0.000002 
5 9 0.003066 
6 9 0.053205 
7 9 0.000439 
8 9 0.000001 
9 9 0.090920 
10 9 0.007373 
11 9 0.000136 
12 9 0.046948 
13 9 0.020536 
14 9 0.000276 
15 9 0.000000 
16 9 0.085708 
17 9 0.000173 
18 9 0.000008 
19 9 0.000001 
20 9 0.012564 
21 9 0.010262 
22 9 0.003721 
23 9 0.000051 
24 9 0.019961 
25 9 0.054647 
26 9 0.093113 
27 9 0.002000 
28 9 0.066463 
29 9 0.000009 
30 9 0.001286 
31 9 0.007688 
32 9 0.000030 
33 9 0.000000 
34 9 0.012101 
35 9 0.000001 
36 9 0.083950 
37 9 0.000017 
38 9 0.011649 
39 9 0.027705 
40 9 0.000423 
1 10 0.069267 
2 10 0.000020 
3 10 0.001675 
4 10 0.009613 
5 10 0.000091 
6 10 0.035366 
7 10 0.062238 
8 10 0.000571 
9 10 0.008162 
10 10 0.074645 
11 10 0.000112 
12 10 0.001377 
13 10 0.058224 
14 10 0.049818 
15 10 0.001027 
16 10 0.004495 
17 10 0.000027 
18 10 0.003730 
19 10 0.000080 
20 10 0.068645 
21 10 0.000510 
22 10 0.073662 
23 10 0.052072 
24 10 0.000416 
25 10 0.034399 
26 10 0.002833 
27 10 0.000081 
28 10 0.001402 
29 10 0.000043 
30 10 0.066472 
31 10 0.073506 
32 10 0.036972 
33 10 0.001156 
34 10 0.000333 
35 10 0.002742 
36 10 0.010762 
37 10 0.001241 
38 10 0.066039 
39 10 0.056133 
40 10 0.000032 
1 11 0.000012 
2 11 0.134990 
3 11 0.000808 
4 11 0.006495 
5 11 0.026007 
6 11 0.000245 
7 11 0.000147 
8 11 0.060799 
9 11 0.000151 
10 11 0.000157 
11 11 0.127112 
12 11 0.009311 
13 11 0.000024 
14 11 0.001841 
15 11 0.010391 
16 11 0.000651 
17 11 0.112249 
18 11 0.016792 
19 11 0.126084 
20 11 0.000023 
21 11 0.053588 
22 11 0.000068 
23 11 0.000639 
24 11 0.013104 
25 11 0.000096 
26 11 0.000258 
27 11 0.058782 
28 11 0.003580 
29 11 0.133948 
30 11 0.000318 
31 11 0.000024 
32 11 0.002642 
33 11 0.019401 
34 11 0.024292 
35 11 0.009643 
36 11 0.000226 
37 11 0.055860 
38 11 0.000013 
39 11 0.000057 
40 11 0.070854 
1 12 0.000405 
2 12 0.002980 
3 12 0.060601 
4 12 0.000013 
5 12 0.086339 
6 12 0.027772 
7 12 0.000026 
8 12 0.000617 
9 12 0.044168 
10 12 0.001171 
11 12 0.007378 
12 12 0.080884 
13 12 0.004766 
14 12 0.000036 
15 12 0.000033 
16 12 0.055564 
17 12 0.022194 
18 12 0.000132 
19 12 0.001407 
20 12 0.002009 
21 12 0.066762 
22 12 0.000185 
23 12 0.000009 
24 12 0.092261 
25 12 0.023863 
26 12 0.052832 
27 12 0.063382 
28 12 0.072713 
29 12 0.003101 
30 12 0.000089 
31 12 0.000467 
32 12 0.000011 
33 12 0.000125 
34 12 0.087710 
35 12 0.000031 
36 12 0.045204 
37 12 0.000852 
38 12 0.001182 
39 12 0.009957 
40 12 0.051305 
1 13 0.094000 
2 13 0.000000 
3 13 0.009334 
4 13 0.000071 
5 13 0.000275 
6 13 0.054101 
7 13 0.006204 
8 13 0.000001 
9 13 0.023399 
10 13 0.059590 
11 13 0.000021 
12 13 0.005681 
13 13 0.095637 
14 13 0.003347 
15 13 0.000002 
16 13 0.014578 
17 13 0.000013 
18 13 0.000061 
19 13 0.000000 
20 13 0.090755 
21 13 0.001385 
22 13 0.043625 
23 13 0.000998 
24 13 0.001946 
25 13 0.060964 
26 13 0.012884 
27 13 0.000198 
28 13 0.007174 
29 13 0.000001 
30 13 0.014975 
31 13 0.080523 
32 13 0.000579 
33 13 0.000004 
34 13 0.001303 
35 13 0.000015 
36 13 0.025463 
37 13 0.000028 
38 13 0.097951 
39 13 0.082153 
40 13 0.000029 
1 14 0.009110 
2 14 0.000162 
3 14 0.000024 
4 14 0.047014 
5 14 0.000009 
6 14 0.003357 
7 14 0.140070 
8 14 0.011868 
9 14 0.000322 
10 14 0.051703 
11 14 0.001341 
12 14 0.000042 
13 14 0.003534 
14 14 0.126079 
15 14 0.020504 
16 14 0.000175 
17 14 0.000102 
18 14 0.027951 
19 14 0.001637 
20 14 0.009616 
21 14 0.000228 
22 14 0.077448 
23 14 0.144329 
24 14 0.000008 
25 14 0.001960 
26 14 0.000069 
27 14 0.000047 
28 14 0.000021 
29 14 0.000628 
30 14 0.124599 
31 14 0.023693 
32 14 0.112535 
33 14 0.019733 
34 14 0.000019 
35 14 0.026767 
36 14 0.000518 
37 14 0.015060 
38 14 0.005555 
39 14 0.005074 
40 14 0.000036 
1 15 0.000042 
2 15 0.003331 
3 15 0.000000 
4 15 0.124077 
5 15 0.000127 
6 15 0.000046 
7 15 0.003050 
8 15 0.090738 
9 15 0.000000 
10 15 0.001701 
11 15 0.011069 
12 15 0.000040 
13 15 0.000004 
14 15 0.030290 
15 15 0.150714 
16 15 0.000001 
17 15 0.002090 
18 15 0.128688 
19 15 0.016436 
20 15 0.000067 
21 15 0.001478 
22 15 0.001106 
23 15 0.013804 
24 15 0.000013 
25 15 0.000002 
26 15 0.000000 
27 15 0.000807 
28 15 0.000001 
29 15 0.007103 
30 15 0.005436 
31 15 0.000221 
32 15 0.052045 
33 15 0.136483 
34 15 0.000164 
35 15 0.142353 
36 15 0.000001 
37 15 0.092578 
38 15 0.000015 
39 15 0.000027 
40 15 0.000885 
1 16 0.005635 
2 16 0.000172 
3 16 0.160230 
4 16 0.000006 
5 16 0.016600 
6 16 0.089285 
7 16 0.000339 
8 16 0.000023 
9 16 0.148177 
10 16 0.007003 
11 16 0.000981 
12 16 0.102336 
13 16 0.022278 
14 16 0.000256 
15 16 0.000002 
16 16 0.157953 
17 16 0.002528 
18 16 0.000019 
19 16 0.000044 
20 16 0.011708 
21 16 0.029570 
22 16 0.002624 
23 16 0.000058 
24 16 0.052772 
25 16 0.084058 
26 16 0.162840 
27 16 0.011493 
28 16 0.135069 
29 16 0.000210 
30 16 0.001014 
31 16 0.005443 
32 16 0.000039 
33 16 0.000005 
34 16 0.036139 
35 16 0.000003 
36 16 0.144340 
37 16 0.000084 
38 16 0.009086 
39 16 0.037961 
40 16 0.006119 
1 17 0.000000 
2 17 0.096322 
3 17 0.001917 
4 17 0.000393 
5 17 0.058632 
6 17 0.000315 
7 17 0.000003 
8 17 0.032884 
9 17 0.000122 
10 17 0.000027 
11 17 0.087206 
12 17 0.022097 
13 17 0.000009 
14 17 0.000126 
15 17 0.001652 
16 17 0.001293 
17 17 0.094549 
18 17 0.005189 
19 17 0.080774 
20 17 0.000005 
21 17 0.062435 
22 17 0.000001 
23 17 0.000018 
24 17 0.037983 
25 17 0.000070 
26 17 0.000359 
27 17 0.073759 
28 17 0.009879 
29 17 0.090911 
30 17 0.000014 
31 17 0.000001 
32 17 0.000115 
33 17 0.006589 
34 17 0.049863 
35 17 0.001326 
36 17 0.000269 
37 17 0.029841 
38 17 0.000002 
39 17 0.000039 
40 17 0.083077 
1 18 0.000479 
2 18 0.010215 
3 18 0.000008 
4 18 0.119918 
5 18 0.000617 
6 18 0.000231 
7 18 0.014245 
8 18 0.090847 
9 18 0.000013 
10 18 0.006128 
11 18 0.018910 
12 18 0.000179 
13 18 0.000105 
14 18 0.043331 
15 18 0.134226 
16 18 0.000017 
17 18 0.007414 
18 18 0.128421 
19 18 0.023300 
20 18 0.000596 
21 18 0.003916 
22 18 0.007007 
23 18 0.026458 
24 18 0.000108 
25 18 0.000063 
26 18 0.000007 
27 18 0.003086 
28 18 0.000026 
29 18 0.014625 
30 18 0.016440 
31 18 0.001788 
32 18 0.061836 
33 18 0.128758 
34 18 0.000708 
35 18 0.133542 
36 18 0.000022 
37 18 0.096799 
38 18 0.000227 
39 18 0.000259 
40 18 0.003612 
1 19 0.000000 
2 19 0.147708 
3 19 0.000017 
4 19 0.009559 
5 19 0.008898 
6 19 0.000029 
7 19 0.000091 
8 19 0.070968 
9 19 0.000000 
10 19 0.000118 
11 19 0.128983 
12 19 0.001777 
13 19 0.000000 
14 19 0.002288 
15 19 0.015675 
16 19 0.000027 
17 19 0.106336 
18 19 0.021206 
19 19 0.145164 
20 19 0.000002 
21 19 0.038307 
22 19 0.000024 
23 19 0.000745 
24 19 0.001204 
25 19 0.000001 
26 19 0.000002 
27 19 0.042255 
28 19 0.000164 
29 19 0.144315 
30 19 0.000292 
31 19 0.000003 
32 19 0.003580 
33 19 0.025402 
34 19 0.008973 
35 19 0.013973 
36 19 0.000003 
37 19 0.062276 
38 19 0.000000 
39 19 0.000002 
40 19 0.056059 
1 20 0.145599 
2 20 0.000001 
3 20 0.005064 
4 20 0.001347 
5 20 0.000169 
6 20 0.075007 
7 20 0.020978 
8 20 0.000024 
9 20 0.021277 
10 20 0.104294 
11 20 0.000028 
12 20 0.003611 
13 20 0.134964 
14 20 0.013627 
15 20 0.000054 
16 20 0.011477 
17 20 0.000011 
18 20 0.000534 
19 20 0.000002 
20 20 0.140470 
21 20 0.001049 
22 20 0.081842 
23 20 0.009653 
24 20 0.001099 
25 20 0.079892 
26 20 0.008155 
27 20 0.000131 
28 20 0.004036 
29 20 0.000002 
30 20 0.036096 
31 20 0.132327 
32 20 0.006405 
33 20 0.000076 
34 20 0.000802 
35 20 0.000297 
36 20 0.026112 
37 20 0.000153 
38 20 0.145902 
39 20 0.120504 
40 20 0.000022 
1 21 0.000129 
2 21 0.024478 
3 21 0.012565 
4 21 0.000379 
5 21 0.083442 
6 21 0.005130 
7 21 0.000047 
8 21 0.008913 
9 21 0.006695 
10 21 0.000313 
11 21 0.028636 
12 21 0.046283 
13 21 0.000817 
14 21 0.000162 
15 21 0.000766 
16 21 0.011083 
17 21 0.043130 
18 21 0.001865 
19 21 0.019808 
20 21 0.000415 
21 21 0.066840 
22 21 0.000094 
23 21 0.000066 
24 21 0.069315 
25 21 0.003837 
26 21 0.008469 
27 21 0.071843 
28 21 0.027726 
29 21 0.024357 
30 21 0.000084 
31 21 0.000150 
32 21 0.000174 
33 21 0.002141 
34 21 0.076834 
35 21 0.000700 
36 21 0.007449 
37 21 0.008769 
38 21 0.000259 
39 21 0.001742 
40 21 0.065337 
1 22 0.052248 
2 22 0.000001 
3 22 0.000149 
4 22 0.012300 
5 22 0.000003 
6 22 0.021333 
7 22 0.089736 
8 22 0.000210 
9 22 0.003695 
10 22 0.066175 
11 22 0.000041 
12 22 0.000209 
13 22 0.038166 
14 22 0.066741 
15 22 0.000554 
16 22 0.001529 
17 22 0.000001 
18 22 0.003818 
19 22 0.000012 
20 22 0.048370 
21 22 0.000138 
22 22 0.079168 
23 22 0.077365 
24 22 0.000021 
25 22 0.020487 
26 22 0.000645 
27 22 0.000005 
28 22 0.000117 
29 22 0.000006 
30 22 0.084262 
31 22 0.059720 
32 22 0.052095 
33 22 0.000692 
34 22 0.000028 
35 22 0.002697 
36 22 0.005227 
37 22 0.000899 
38 22 0.046146 
39 22 0.036222 
40 22 0.000001 
1 23 0.004717 
2 23 0.000020 
3 23 0.000001 
4 23 0.029559 
5 23 0.000000 
6 23 0.001247 
7 23 0.126964 
8 23 0.003252 
9 23 0.000046 
10 23 0.038530 
11 23 0.000326 
12 23 0.000008 
13 23 0.000809 
14 23 0.103521 
15 23 0.006527 
16 23 0.000030 
17 23 0.000010 
18 23 0.012074 
19 23 0.000377 
20 23 0.004897 
21 23 0.000067 
22 23 0.064179 
23 23 0.131349 
24 23 0.000000 
25 23 0.000405 
26 23 0.000007 
27 23 0.000005 
28 23 0.000001 
29 23 0.000128 
30 23 0.105032 
31 23 0.016550 
32 23 0.093981 
33 23 0.006194 
34 23 0.000002 
35 23 0.011092 
36 23 0.000093 
37 23 0.004848 
38 23 0.001977 
39 23 0.001849 
40 23 0.000001 
1 24 0.000035 
2 24 0.002442 
3 24 0.024201 
4 24 0.000002 
5 24 0.106791 
6 24 0.007890 
7 24 0.000001 
8 24 0.000285 
9 24 0.012540 
10 24 0.000241 
11 24 0.007054 
12 24 0.062567 
13 24 0.001106 
14 24 0.000005 
15 24 0.000009 
16 24 0.019042 
17 24 0.025823 
18 24 0.000060 
19 24 0.000713 
20 24 0.000416 
21 24 0.068015 
22 24 0.000011 
23 24 0.000000 
24 24 0.098888 
25 24 0.006312 
26 24 0.016597 
27 24 0.074664 
28 24 0.044346 
29 24 0.002476 
30 24 0.000008 
31 24 0.000052 
32 24 0.000001 
33 24 0.000047 
34 24 0.095461 
35 24 0.000008 
36 24 0.013119 
37 24 0.000512 
38 24 0.000212 
39 24 0.002504 
40 24 0.064159 
1 25 0.056778 
2 25 0.000003 
3 25 0.053923 
4 25 0.000041 
5 25 0.001935 
6 25 0.068612 
7 25 0.003626 
8 25 0.000002 
9 25 0.069222 
10 25 0.039972 
11 25 0.000103 
12 25 0.031787 
13 25 0.068972 
14 25 0.002119 
15 25 0.000001 
16 25 0.061222 
17 25 0.000112 
18 25 0.000043 
19 25 0.000001 
20 25 0.060905 
21 25 0.007323 
22 25 0.026532 
23 25 0.000566 
24 25 0.012528 
25 25 0.072314 
26 25 0.062118 
27 25 0.001328 
28 25 0.042571 
29 25 0.000007 
30 25 0.009340 
31 25 0.049960 
32 25 0.000340 
33 25 0.000003 
34 25 0.008035 
35 25 0.000009 
36 25 0.067878 
37 25 0.000030 
38 25 0.062803 
39 25 0.067847 
40 25 0.000265 
1 26 0.002099 
2 26 0.000027 
3 26 0.138798 
4 26 0.000001 
5 26 0.007287 
6 26 0.069412 
7 26 0.000090 
8 26 0.000003 
9 26 0.128832 
10 26 0.003467 
11 26 0.000328 
12 26 0.078087 
13 26 0.015620 
14 26 0.000078 
15 26 0.000000 
16 26 0.130551 
17 26 0.000640 
18 26 0.000007 
19 26 0.000004 
20 26 0.006545 
21 26 0.018203 
22 26 0.000845 
23 26 0.000011 
24 26 0.037003 
25 26 0.068165 
26 26 0.141834 
27 26 0.004700 
28 26 0.110882 
29 26 0.000040 
30 26 0.000323 
31 26 0.002061 
32 26 0.000007 
33 26 0.000000 
34 26 0.022532 
35 26 0.000000 
36 26 0.120429 
37 26 0.000029 
38 26 0.004605 
39 26 0.027790 
40 26 0.001612 
1 27 0.000007 
2 27 0.035510 
3 27 0.007103 
4 27 0.000134 
5 27 0.121738 
6 27 0.001581 
7 27 0.000002 
8 27 0.011252 
9 27 0.001477 
10 27 0.000061 
11 27 0.039023 
12 27 0.054122 
13 27 0.000137 
14 27 0.000049 
15 27 0.000550 
16 27 0.005092 
17 27 0.063027 
18 27 0.001851 
19 27 0.027251 
20 27 0.000061 
21 27 0.088595 
22 27 0.000004 
23 27 0.000007 
24 27 0.093880 
25 27 0.000806 
26 27 0.002471 
27 27 0.102771 
28 27 0.027798 
29 27 0.034003 
30 27 0.000008 
31 27 0.000010 
32 27 0.000041 
33 27 0.002242 
34 27 0.104678 
35 27 0.000454 
36 27 0.001977 
37 27 0.010864 
38 27 0.000029 
39 27 0.000363 
40 27 0.098110 
1 28 0.000281 
2 28 0.000754 
3 28 0.086252 
4 28 0.000001 
5 28 0.049782 
6 28 0.036726 
7 28 0.000007 
8 28 0.000066 
9 28 0.064736 
10 28 0.001232 
11 28 0.002973 
12 28 0.075854 
13 28 0.006234 
14 28 0.000017 
15 28 0.000002 
16 28 0.076071 
17 28 0.010402 
18 28 0.000021 
19 28 0.000156 
20 28 0.002324 
21 28 0.041975 
22 28 0.000098 
23 28 0.000001 
24 28 0.069015 
25 28 0.033080 
26 28 0.077809 
27 28 0.034336 
28 28 0.085332 
29 28 0.000825 
30 28 0.000050 
31 28 0.000358 
32 28 0.000001 
33 28 0.000010 
34 28 0.057130 
35 28 0.000002 
36 28 0.063721 
37 28 0.000183 
38 28 0.001282 
39 28 0.013025 
40 28 0.026158 
1 29 0.000000 
2 29 0.202926 
3 29 0.000210 
4 29 0.004518 
5 29 0.019737 
6 29 0.000074 
7 29 0.000047 
8 29 0.083582 
9 29 0.000010 
10 29 0.000083 
11 29 0.179040 
12 29 0.005083 
13 29 0.000001 
14 29 0.001188 
15 29 0.009125 
16 29 0.000174 
17 29 0.156411 
18 29 0.017515 
19 29 0.188679 
20 29 0.000002 
21 29 0.061127 
22 29 0.000015 
23 29 0.000343 
24 29 0.005824 
25 29 0.000007 
26 29 0.000036 
27 29 0.068527 
28 29 0.001261 
29 29 0.196529 
30 29 0.000153 
31 29 0.000003 
32 29 0.001669 
33 29 0.021658 
34 29 0.018794 
35 29 0.007953 
36 29 0.000030 
37 29 0.073969 
38 29 0.000000 
39 29 0.000007 
40 29 0.089047 
1 30 0.025674 
2 30 0.000016 
3 30 0.000081 
4 30 0.028322 
5 30 0.000004 
6 30 0.010391 
7 30 0.155432 
8 30 0.001781 
9 30 0.001494 
10 30 0.069691 
11 30 0.000226 
12 30 0.000116 
13 30 0.015429 
14 30 0.125596 
15 30 0.003475 
16 30 0.000693 
17 30 0.000011 
18 30 0.010458 
19 30 0.000203 
20 30 0.025213 
21 30 0.000134 
22 30 0.098534 
23 30 0.147851 
24 30 0.000015 
25 30 0.008480 
26 30 0.000287 
27 30 0.000009 
28 30 0.000067 
29 30 0.000079 
30 30 0.138516 
31 30 0.042546 
32 30 0.104365 
33 30 0.003666 
34 30 0.000020 
35 30 0.008343 
36 30 0.002218 
37 30 0.003480 
38 30 0.020105 
39 30 0.016822 
40 30 0.000004 
1 31 0.110517 
2 31 0.000000 
3 31 0.000677 
4 31 0.003800 
5 31 0.000017 
6 31 0.048370 
7 31 0.038150 
8 31 0.000051 
9 31 0.010030 
10 31 0.086183 
11 31 0.000021 
12 31 0.000683 
13 31 0.092331 
14 31 0.026341 
15 31 0.000140 
16 31 0.004154 
17 31 0.000001 
18 31 0.001259 
19 31 0.000002 
20 31 0.102088 
21 31 0.000294 
22 31 0.077958 
23 31 0.025793 
24 31 0.000116 
25 31 0.050508 
26 31 0.002058 
27 31 0.000017 
28 31 0.000527 
29 31 0.000001 
30 31 0.047205 
31 31 0.104252 
32 31 0.017108 
33 31 0.000190 
34 31 0.000110 
35 31 0.000807 
36 31 0.013420 
37 31 0.000304 
38 31 0.105180 
39 31 0.082342 
40 31 0.000002 
1 32 0.003737 
2 32 0.000149 
3 32 0.000001 
4 32 0.053614 
5 32 0.000003 
6 32 0.001080 
7 32 0.107834 
8 32 0.017558 
9 32 0.000034 
10 32 0.034413 
11 32 0.001735 
12 32 0.000010 
13 32 0.000598 
14 32 0.101361 
15 32 0.031864 
16 32 0.000025 
17 32 0.000077 
18 32 0.036073 
19 32 0.002310 
20 32 0.004084 
21 32 0.000215 
22 32 0.054339 
23 32 0.117881 
24 32 0.000001 
25 32 0.000307 
26 32 0.000006 
27 32 0.000032 
28 32 0.000001 
29 32 0.000795 
30 32 0.093182 
31 32 0.013815 
32 32 0.097691 
33 32 0.029350 
34 32 0.000009 
35 32 0.037254 
36 32 0.000072 
37 32 0.020791 
38 32 0.001540 
39 32 0.001530 
40 32 0.000017 
1 33 0.000073 
2 33 0.015852 
3 33 0.000001 
4 33 0.137630 
5 33 0.000811 
6 33 0.000071 
7 33 0.004112 
8 33 0.113758 
9 33 0.000001 
10 33 0.002322 
11 33 0.025642 
12 33 0.000197 
13 33 0.000009 
14 33 0.035778 
15 33 0.167034 
16 33 0.000004 
17 33 0.011065 
18 33 0.151168 
19 33 0.032830 
20 33 0.000110 
21 33 0.005278 
22 33 0.001634 
23 33 0.016089 
24 33 0.000096 
25 33 0.000005 
26 33 0.000000 
27 33 0.004402 
28 33 0.000012 
29 33 0.021268 
30 33 0.006992 
31 33 0.000351 
32 33 0.058849 
33 33 0.157947 
34 33 0.000923 
35 33 0.160084 
36 33 0.000002 
37 33 0.117020 
38 33 0.000029 
39 33 0.000046 
40 33 0.005313 
1 34 0.000048 
2 34 0.009895 
3 34 0.020562 
4 34 0.000031 
5 34 0.141348 
6 34 0.006966 
7 34 0.000003 
8 34 0.002519 
9 34 0.009722 
10 34 0.000248 
11 34 0.016648 
12 34 0.076043 
13 34 0.000946 
14 34 0.000018 
15 34 0.000118 
16 34 0.016706 
17 34 0.043464 
18 34 0.000448 
19 34 0.006014 
20 34 0.000387 
21 34 0.096269 
22 34 0.000021 
23 34 0.000003 
24 34 0.121721 
25 34 0.005186 
26 34 0.012899 
27 34 0.106347 
28 34 0.046992 
29 34 0.009755 
30 34 0.000014 
31 34 0.000064 
32 34 0.000010 
33 34 0.000494 
34 34 0.126346 
35 34 0.000101 
36 34 0.010683 
37 34 0.002815 
38 34 0.000203 
39 34 0.002171 
40 34 0.093259 
1 35 0.000301 
2 35 0.003073 
3 35 0.000000 
4 35 0.149110 
5 35 0.000123 
6 35 0.000142 
7 35 0.012687 
8 35 0.101670 
9 35 0.000001 
10 35 0.005208 
11 35 0.012170 
12 35 0.000045 
13 35 0.000032 
14 35 0.047165 
15 35 0.168499 
16 35 0.000003 
17 35 0.001967 
18 35 0.151515 
19 35 0.017301 
20 35 0.000387 
21 35 0.001608 
22 35 0.005745 
23 35 0.027740 
24 35 0.000014 
25 35 0.000017 
26 35 0.000000 
27 35 0.000782 
28 35 0.000002 
29 35 0.007306 
30 35 0.015106 
31 35 0.001332 
32 35 0.072434 
33 35 0.154746 
34 35 0.000166 
35 35 0.164762 
36 35 0.000004 
37 35 0.107111 
38 35 0.000112 
39 35 0.000141 
40 35 0.000820 
1 36 0.018363 
2 36 0.000024 
3 36 0.129643 
4 36 0.000012 
5 36 0.006233 
6 36 0.087143 
7 36 0.001104 
8 36 0.000004 
9 36 0.134348 
10 36 0.015719 
11 36 0.000317 
12 36 0.076730 
13 36 0.036147 
14 36 0.000709 
15 36 0.000001 
16 36 0.133420 
17 36 0.000530 
18 36 0.000020 
19 36 0.000005 
20 36 0.024967 
21 36 0.018222 
22 36 0.008503 
23 36 0.000163 
24 36 0.033393 
25 36 0.086022 
26 36 0.139018 
27 36 0.004203 
28 36 0.104437 
29 36 0.000036 
30 36 0.003073 
31 36 0.016666 
32 36 0.000101 
33 36 0.000002 
34 36 0.021234 
35 36 0.000003 
36 36 0.128930 
37 36 0.000039 
38 36 0.023183 
39 36 0.048043 
40 36 0.001282 
1 37 0.000109 
2 37 0.049412 
3 37 0.000049 
4 37 0.067510 
5 37 0.003727 
6 37 0.000107 
7 37 0.003113 
8 37 0.079747 
9 37 0.000021 
10 37 0.001756 
11 37 0.054407 
12 37 0.001012 
13 37 0.000038 
14 37 0.019754 
15 37 0.081852 
16 37 0.000055 
17 37 0.037407 
18 37 0.082125 
19 37 0.059179 
20 37 0.000146 
21 37 0.016034 
22 37 0.001448 
23 37 0.009096 
24 37 0.000856 
25 37 0.000034 
26 37 0.000025 
27 37 0.015934 
28 37 0.000202 
29 37 0.053887 
30 37 0.004723 
31 37 0.000375 
32 37 0.030186 
33 37 0.084545 
34 37 0.003936 
35 37 0.080064 
36 37 0.000030 
37 37 0.080950 
38 37 0.000063 
39 37 0.000081 
40 37 0.019628 
1 38 0.127686 
2 38 0.000000 
3 38 0.002429 
4 38 0.000321 
5 38 0.000065 
6 38 0.060023 
7 38 0.011303 
8 38 0.000004 
9 38 0.016101 
10 38 0.081506 
11 38 0.000013 
12 38 0.001764 
13 38 0.118332 
14 38 0.006305 
15 38 0.000009 
16 38 0.007303 
17 38 0.000003 
18 38 0.000158 
19 38 0.000000 
20 38 0.118485 
21 38 0.000537 
22 38 0.063623 
23 38 0.003035 
24 38 0.000465 
25 38 0.066944 
26 38 0.004768 
27 38 0.000053 
28 38 0.001860 
29 38 0.000000 
30 38 0.023436 
31 38 0.110792 
32 38 0.001867 
33 38 0.000015 
34 38 0.000349 
35 38 0.000067 
36 38 0.019739 
37 38 0.000053 
38 38 0.127664 
39 38 0.100615 
40 38 0.000007 
1 39 0.107274 
2 39 0.000004 
3 39 0.024723 
4 39 0.000413 
5 39 0.000975 
6 39 0.076849 
7 39 0.010303 
8 39 0.000012 
9 39 0.042050 
10 39 0.077562 
11 39 0.000070 
12 39 0.015794 
13 39 0.110946 
14 39 0.006496 
15 39 0.000020 
16 39 0.033047 
17 39 0.000070 
18 39 0.000209 
19 39 0.000003 
20 39 0.109498 
21 39 0.003943 
22 39 0.055709 
23 39 0.003228 
24 39 0.005898 
25 39 0.080849 
26 39 0.030306 
27 39 0.000701 
28 39 0.019943 
29 39 0.000007 
30 39 0.021901 
31 39 0.096990 
32 39 0.002132 
33 39 0.000029 
34 39 0.003992 
35 39 0.000097 
36 39 0.045303 
37 39 0.000079 
38 39 0.112578 
39 39 0.103072 
40 39 0.000157 
1 40 0.000000 
2 40 0.035156 
3 40 0.003092 
4 40 0.000079 
5 40 0.081792 
6 40 0.000436 
7 40 0.000000 
8 40 0.010517 
9 40 0.000188 
10 40 0.000018 
11 40 0.034638 
12 40 0.032175 
13 40 0.000013 
14 40 0.000029 
15 40 0.000445 
16 40 0.001964 
17 40 0.052197 
18 40 0.001593 
19 40 0.026733 
20 40 0.000007 
21 40 0.059109 
22 40 0.000000 
23 40 0.000002 
24 40 0.059359 
25 40 0.000102 
26 40 0.000567 
27 40 0.072007 
28 40 0.015606 
29 40 0.032585 
30 40 0.000003 
31 40 0.000001 
32 40 0.000019 
33 40 0.001992 
34 40 0.067377 
35 40 0.000352 
36 40 0.000407 
37 40 0.009863 
38 40 0.000003 
39 40 0.000054 
40 40 0.073191 
sd 
0.019611  
0.025746  
0.021617  
0.025182  
0.014799  
0.025808  
0.016379  
0.032038  
0.021229  
0.022273  
0.028032  
0.020426  
0.023170  
0.022364  
0.031722  
0.036942  
0.021555  
0.033135  
0.028834  
0.034258  
0.014517  
0.019821  
0.016061  
0.013973  
0.026502  
0.029587  
0.018010  
0.021079  
0.037529  
0.022851  
0.026272  
0.019963  
0.038760  
0.018016  
0.037647  
0.033964  
0.027843  
0.027861  
0.031299  
0.013328  
